n = 10; 

m=12; 


39	79	9	26	72	29	36	48	57	95
62	77	43	98	48	14	45	25	98	30
54	67	25	77	38	98	96	20	15	36
73	21	29	3	96	51	26	44	56	31
90	63	85	36	69	67	81	18	81	72
19	82	12	70	6	64	3	4	29	43
55	46	68	15	55	74	42	40	88	68
67	66	66	32	8	30	92	40	13	79
98	79	44	90	22	72	84	42	46	72
30	63	88	79	44	54	12	15	3	89
53	28	88	10	32	38	25	24	90	7
90	63	85	36	69	67	81	18	81	72

